c instance by G2
c solution = 011111000001110001100
c Known solution cost is 956 
p cnf 21 30
w 5 58 6 22 89 98 23 13 72 46 49 4 65 34 43 89 13 58 61 29 79
8 20 12 0
7 21 3 0
-8 -2 11 0
-10 -14 -19 0
16 -1 9 0
-21 -12 16 0
11 -4 -15 0
4 9 13 0
7 -20 18 0
-3 -20 1 0
4 -5 -19 0
21 -16 20 0
5 -13 10 0
19 -3 -5 0
7 16 13 0
13 -17 9 0
-17 -5 9 0
15 21 -7 0
-14 6 1 0
-11 -2 17 0
20 -19 -9 0
17 -19 -10 0
-19 16 2 0
-3 -8 -11 0
-20 -18 -19 0
9 18 -6 0
-7 5 -21 0
6 11 -19 0
14 11 15 0
21 7 2 0
